c "228576.clq"
p edge 197 2896
e 1 17
e 1 19
e 1 20
e 1 21
e 1 30
e 1 33
e 1 36
e 1 40
e 1 47
e 1 55
e 1 74
e 1 152
e 1 176
e 2 17
e 2 18
e 2 19
e 2 20
e 2 21
e 2 23
e 2 24
e 2 25
e 2 27
e 2 28
e 2 30
e 2 31
e 2 32
e 2 34
e 2 35
e 2 38
e 2 42
e 2 54
e 2 58
e 2 59
e 2 64
e 2 66
e 2 81
e 2 88
e 2 91
e 2 109
e 2 115
e 2 118
e 2 127
e 2 128
e 2 135
e 2 146
e 2 148
e 2 152
e 2 155
e 2 156
e 2 179
e 2 189
e 2 197
e 3 17
e 3 18
e 3 19
e 3 22
e 3 23
e 3 32
e 3 33
e 3 35
e 3 39
e 3 40
e 3 42
e 3 43
e 3 45
e 3 54
e 3 55
e 3 60
e 3 75
e 3 77
e 3 91
e 3 111
e 3 140
e 3 157
e 3 161
e 3 166
e 3 170
e 3 173
e 3 176
e 3 185
e 3 186
e 3 187
e 3 191
e 4 17
e 4 18
e 4 20
e 4 21
e 4 22
e 4 23
e 4 24
e 4 28
e 4 31
e 4 32
e 4 33
e 4 34
e 4 37
e 4 39
e 4 44
e 4 50
e 4 53
e 4 54
e 4 64
e 4 71
e 4 76
e 4 86
e 4 88
e 4 91
e 4 118
e 4 124
e 4 174
e 4 177
e 4 192
e 4 193
e 5 17
e 5 18
e 5 19
e 5 22
e 5 24
e 5 26
e 5 27
e 5 28
e 5 30
e 5 32
e 5 33
e 5 37
e 5 41
e 5 42
e 5 45
e 5 48
e 5 50
e 5 52
e 5 53
e 5 56
e 5 57
e 5 60
e 5 62
e 5 63
e 5 64
e 5 66
e 5 74
e 5 78
e 5 82
e 5 90
e 5 92
e 5 94
e 5 96
e 5 105
e 5 119
e 5 126
e 5 130
e 5 132
e 5 138
e 5 139
e 5 142
e 5 145
e 5 148
e 5 151
e 6 17
e 6 18
e 6 19
e 6 20
e 6 21
e 6 22
e 6 23
e 6 26
e 6 27
e 6 29
e 6 34
e 6 35
e 6 36
e 6 38
e 6 39
e 6 40
e 6 43
e 6 48
e 6 55
e 6 56
e 6 59
e 6 61
e 6 62
e 6 69
e 6 71
e 6 72
e 6 79
e 6 81
e 6 86
e 6 87
e 6 90
e 6 97
e 6 98
e 6 108
e 6 118
e 6 122
e 6 132
e 6 135
e 6 153
e 6 170
e 7 17
e 7 18
e 7 19
e 7 20
e 7 23
e 7 24
e 7 27
e 7 28
e 7 31
e 7 34
e 7 35
e 7 37
e 7 38
e 7 45
e 7 46
e 7 60
e 7 74
e 7 96
e 7 127
e 7 133
e 7 137
e 7 145
e 7 154
e 7 158
e 7 159
e 7 169
e 7 191
e 7 193
e 8 17
e 8 18
e 8 19
e 8 20
e 8 21
e 8 22
e 8 23
e 8 24
e 8 25
e 8 26
e 8 28
e 8 29
e 8 31
e 8 34
e 8 37
e 8 41
e 8 45
e 8 47
e 8 50
e 8 51
e 8 52
e 8 55
e 8 61
e 8 75
e 8 78
e 8 82
e 8 94
e 8 97
e 8 112
e 8 119
e 8 127
e 8 147
e 8 164
e 8 170
e 8 187
e 8 193
e 9 17
e 9 18
e 9 19
e 9 20
e 9 22
e 9 24
e 9 25
e 9 28
e 9 29
e 9 30
e 9 32
e 9 36
e 9 38
e 9 44
e 9 47
e 9 48
e 9 49
e 9 57
e 9 58
e 9 60
e 9 62
e 9 65
e 9 69
e 9 73
e 9 74
e 9 75
e 9 76
e 9 77
e 9 78
e 9 79
e 9 85
e 9 86
e 9 87
e 9 95
e 9 99
e 9 104
e 9 121
e 9 161
e 9 162
e 9 172
e 9 173
e 9 183
e 9 184
e 9 193
e 10 17
e 10 18
e 10 19
e 10 20
e 10 21
e 10 22
e 10 25
e 10 28
e 10 29
e 10 30
e 10 31
e 10 33
e 10 34
e 10 35
e 10 37
e 10 38
e 10 41
e 10 45
e 10 46
e 10 54
e 10 56
e 10 60
e 10 66
e 10 68
e 10 71
e 10 76
e 10 79
e 10 80
e 10 81
e 10 89
e 10 92
e 10 95
e 10 96
e 10 98
e 10 99
e 10 101
e 10 117
e 10 121
e 10 131
e 10 140
e 10 141
e 10 143
e 10 144
e 10 148
e 10 153
e 10 157
e 10 162
e 10 165
e 10 166
e 10 169
e 10 177
e 10 188
e 10 194
e 11 17
e 11 18
e 11 19
e 11 20
e 11 21
e 11 22
e 11 23
e 11 24
e 11 25
e 11 26
e 11 27
e 11 30
e 11 36
e 11 37
e 11 38
e 11 40
e 11 43
e 11 44
e 11 45
e 11 47
e 11 50
e 11 51
e 11 52
e 11 53
e 11 55
e 11 56
e 11 57
e 11 64
e 11 65
e 11 67
e 11 71
e 11 77
e 11 81
e 11 82
e 11 83
e 11 89
e 11 94
e 11 104
e 11 112
e 11 116
e 11 125
e 11 128
e 11 132
e 11 153
e 11 157
e 11 170
e 11 174
e 11 178
e 11 179
e 11 185
e 11 186
e 11 187
e 12 17
e 12 18
e 12 19
e 12 20
e 12 21
e 12 25
e 12 26
e 12 27
e 12 29
e 12 31
e 12 32
e 12 35
e 12 37
e 12 39
e 12 41
e 12 42
e 12 44
e 12 47
e 12 50
e 12 54
e 12 55
e 12 57
e 12 58
e 12 59
e 12 61
e 12 67
e 12 70
e 12 71
e 12 72
e 12 73
e 12 77
e 12 79
e 12 80
e 12 82
e 12 84
e 12 94
e 12 96
e 12 100
e 12 103
e 12 104
e 12 105
e 12 106
e 12 112
e 12 114
e 12 122
e 12 124
e 12 140
e 12 157
e 12 159
e 12 164
e 12 169
e 12 177
e 12 180
e 12 181
e 12 186
e 13 17
e 13 18
e 13 19
e 13 20
e 13 21
e 13 22
e 13 23
e 13 24
e 13 25
e 13 26
e 13 28
e 13 31
e 13 33
e 13 35
e 13 41
e 13 42
e 13 45
e 13 49
e 13 56
e 13 66
e 13 73
e 13 84
e 13 86
e 13 97
e 13 107
e 13 111
e 13 117
e 13 119
e 13 126
e 13 130
e 13 144
e 13 153
e 13 159
e 13 161
e 14 17
e 14 18
e 14 19
e 14 20
e 14 21
e 14 22
e 14 23
e 14 24
e 14 25
e 14 26
e 14 30
e 14 32
e 14 34
e 14 41
e 14 43
e 14 44
e 14 47
e 14 48
e 14 49
e 14 51
e 14 52
e 14 54
e 14 56
e 14 60
e 14 61
e 14 67
e 14 71
e 14 78
e 14 81
e 14 100
e 14 108
e 14 110
e 14 113
e 14 119
e 14 120
e 14 134
e 14 137
e 14 148
e 14 150
e 14 151
e 14 160
e 14 171
e 14 190
e 14 192
e 14 194
e 14 195
e 15 17
e 15 18
e 15 21
e 15 25
e 15 58
e 15 60
e 15 69
e 15 98
e 15 116
e 15 129
e 15 131
e 15 137
e 15 139
e 15 150
e 15 155
e 15 159
e 15 164
e 16 17
e 16 18
e 16 19
e 16 20
e 16 21
e 16 22
e 16 23
e 16 24
e 16 26
e 16 27
e 16 29
e 16 32
e 16 34
e 16 37
e 16 38
e 16 44
e 16 49
e 16 50
e 16 51
e 16 66
e 16 72
e 16 73
e 16 78
e 16 80
e 16 82
e 16 83
e 16 84
e 16 89
e 16 98
e 16 101
e 16 102
e 16 108
e 16 110
e 16 128
e 16 129
e 16 131
e 16 154
e 16 164
e 16 175
e 16 191
e 16 195
e 17 18
e 17 19
e 17 20
e 17 21
e 17 22
e 17 23
e 17 24
e 17 25
e 17 26
e 17 27
e 17 28
e 17 29
e 17 31
e 17 32
e 17 33
e 17 35
e 17 36
e 17 37
e 17 38
e 17 39
e 17 40
e 17 41
e 17 42
e 17 43
e 17 45
e 17 46
e 17 47
e 17 50
e 17 51
e 17 52
e 17 54
e 17 55
e 17 59
e 17 60
e 17 61
e 17 64
e 17 66
e 17 67
e 17 73
e 17 78
e 17 81
e 17 85
e 17 89
e 17 90
e 17 91
e 17 100
e 17 102
e 17 105
e 17 110
e 17 115
e 17 129
e 17 133
e 17 149
e 17 162
e 17 164
e 17 171
e 17 176
e 17 178
e 17 192
e 18 19
e 18 20
e 18 21
e 18 22
e 18 23
e 18 24
e 18 25
e 18 26
e 18 27
e 18 28
e 18 29
e 18 30
e 18 31
e 18 33
e 18 36
e 18 37
e 18 38
e 18 40
e 18 41
e 18 43
e 18 44
e 18 46
e 18 48
e 18 49
e 18 50
e 18 57
e 18 59
e 18 63
e 18 65
e 18 68
e 18 69
e 18 72
e 18 79
e 18 83
e 18 88
e 18 89
e 18 90
e 18 91
e 18 93
e 18 94
e 18 95
e 18 97
e 18 99
e 18 101
e 18 107
e 18 113
e 18 114
e 18 115
e 18 116
e 18 119
e 18 120
e 18 121
e 18 123
e 18 125
e 18 126
e 18 147
e 18 149
e 18 151
e 18 156
e 18 159
e 18 162
e 18 165
e 18 171
e 18 172
e 18 175
e 18 184
e 18 187
e 18 196
e 19 20
e 19 21
e 19 22
e 19 23
e 19 24
e 19 25
e 19 26
e 19 27
e 19 28
e 19 30
e 19 33
e 19 35
e 19 36
e 19 37
e 19 39
e 19 40
e 19 41
e 19 43
e 19 44
e 19 46
e 19 48
e 19 49
e 19 52
e 19 57
e 19 60
e 19 61
e 19 64
e 19 68
e 19 69
e 19 70
e 19 72
e 19 74
e 19 75
e 19 76
e 19 77
e 19 85
e 19 86
e 19 88
e 19 89
e 19 92
e 19 93
e 19 94
e 19 95
e 19 97
e 19 100
e 19 102
e 19 111
e 19 113
e 19 114
e 19 116
e 19 119
e 19 121
e 19 124
e 19 125
e 19 128
e 19 129
e 19 130
e 19 132
e 19 136
e 19 137
e 19 143
e 19 146
e 19 149
e 19 152
e 19 153
e 19 158
e 19 159
e 19 161
e 19 164
e 19 165
e 19 168
e 19 171
e 19 173
e 19 182
e 19 188
e 19 190
e 20 21
e 20 22
e 20 23
e 20 24
e 20 25
e 20 26
e 20 27
e 20 29
e 20 30
e 20 34
e 20 35
e 20 36
e 20 39
e 20 41
e 20 43
e 20 47
e 20 49
e 20 51
e 20 52
e 20 56
e 20 57
e 20 64
e 20 65
e 20 69
e 20 70
e 20 80
e 20 81
e 20 82
e 20 87
e 20 98
e 20 101
e 20 108
e 20 113
e 20 114
e 20 118
e 20 130
e 20 131
e 20 138
e 20 139
e 20 143
e 20 145
e 20 149
e 20 156
e 20 169
e 20 178
e 20 180
e 20 186
e 20 187
e 20 189
e 20 194
e 21 22
e 21 23
e 21 24
e 21 25
e 21 26
e 21 27
e 21 28
e 21 30
e 21 31
e 21 32
e 21 33
e 21 34
e 21 37
e 21 39
e 21 42
e 21 43
e 21 44
e 21 46
e 21 48
e 21 49
e 21 50
e 21 51
e 21 52
e 21 54
e 21 55
e 21 58
e 21 63
e 21 65
e 21 67
e 21 68
e 21 75
e 21 78
e 21 79
e 21 80
e 21 83
e 21 88
e 21 90
e 21 92
e 21 99
e 21 104
e 21 107
e 21 110
e 21 112
e 21 113
e 21 115
e 21 116
e 21 117
e 21 120
e 21 123
e 21 152
e 21 155
e 21 159
e 21 161
e 21 164
e 21 172
e 21 187
e 21 193
e 21 194
e 22 23
e 22 24
e 22 25
e 22 26
e 22 27
e 22 28
e 22 29
e 22 30
e 22 31
e 22 33
e 22 34
e 22 35
e 22 36
e 22 38
e 22 39
e 22 41
e 22 42
e 22 46
e 22 48
e 22 50
e 22 53
e 22 55
e 22 56
e 22 58
e 22 59
e 22 66
e 22 67
e 22 68
e 22 69
e 22 70
e 22 71
e 22 79
e 22 83
e 22 84
e 22 85
e 22 88
e 22 92
e 22 93
e 22 99
e 22 102
e 22 104
e 22 107
e 22 108
e 22 113
e 22 118
e 22 120
e 22 122
e 22 123
e 22 125
e 22 127
e 22 142
e 22 143
e 22 144
e 22 146
e 22 151
e 22 156
e 22 165
e 22 166
e 22 167
e 22 173
e 22 177
e 22 178
e 22 179
e 22 181
e 22 186
e 22 191
e 22 197
e 23 25
e 23 26
e 23 27
e 23 28
e 23 29
e 23 33
e 23 34
e 23 35
e 23 36
e 23 37
e 23 38
e 23 41
e 23 43
e 23 49
e 23 50
e 23 52
e 23 53
e 23 56
e 23 58
e 23 62
e 23 65
e 23 69
e 23 70
e 23 71
e 23 72
e 23 74
e 23 79
e 23 82
e 23 85
e 23 88
e 23 93
e 23 95
e 23 97
e 23 99
e 23 100
e 23 110
e 23 117
e 23 119
e 23 124
e 23 125
e 23 128
e 23 130
e 23 134
e 23 151
e 23 162
e 23 170
e 23 190
e 23 191
e 23 194
e 24 26
e 24 27
e 24 28
e 24 29
e 24 30
e 24 31
e 24 32
e 24 34
e 24 35
e 24 36
e 24 37
e 24 39
e 24 42
e 24 43
e 24 44
e 24 47
e 24 48
e 24 49
e 24 50
e 24 51
e 24 58
e 24 65
e 24 70
e 24 79
e 24 86
e 24 88
e 24 94
e 24 95
e 24 97
e 24 103
e 24 107
e 24 118
e 24 124
e 24 125
e 24 130
e 24 140
e 24 146
e 24 149
e 24 151
e 24 153
e 24 161
e 24 162
e 24 163
e 24 170
e 24 172
e 24 186
e 24 189
e 24 193
e 25 27
e 25 28
e 25 29
e 25 30
e 25 31
e 25 32
e 25 33
e 25 35
e 25 37
e 25 39
e 25 40
e 25 46
e 25 47
e 25 49
e 25 51
e 25 56
e 25 57
e 25 58
e 25 61
e 25 62
e 25 63
e 25 66
e 25 68
e 25 73
e 25 74
e 25 76
e 25 82
e 25 83
e 25 84
e 25 88
e 25 91
e 25 93
e 25 100
e 25 102
e 25 106
e 25 107
e 25 112
e 25 115
e 25 118
e 25 120
e 25 122
e 25 123
e 25 125
e 25 138
e 25 145
e 25 162
e 25 172
e 25 176
e 25 178
e 25 180
e 25 181
e 25 185
e 25 191
e 26 29
e 26 40
e 26 41
e 26 42
e 26 44
e 26 45
e 26 46
e 26 48
e 26 49
e 26 53
e 26 56
e 26 57
e 26 59
e 26 60
e 26 61
e 26 63
e 26 65
e 26 66
e 26 68
e 26 72
e 26 74
e 26 76
e 26 78
e 26 81
e 26 88
e 26 89
e 26 90
e 26 93
e 26 101
e 26 102
e 26 104
e 26 107
e 26 109
e 26 112
e 26 115
e 26 117
e 26 120
e 26 127
e 26 134
e 26 140
e 26 141
e 26 144
e 26 150
e 26 154
e 26 160
e 26 161
e 26 176
e 26 177
e 26 178
e 27 29
e 27 30
e 27 31
e 27 32
e 27 33
e 27 34
e 27 35
e 27 36
e 27 37
e 27 38
e 27 39
e 27 42
e 27 44
e 27 45
e 27 48
e 27 52
e 27 54
e 27 59
e 27 67
e 27 68
e 27 74
e 27 77
e 27 80
e 27 84
e 27 87
e 27 97
e 27 99
e 27 100
e 27 103
e 27 107
e 27 108
e 27 109
e 27 112
e 27 115
e 27 119
e 27 124
e 27 129
e 27 137
e 27 138
e 27 139
e 27 144
e 27 145
e 27 149
e 27 150
e 27 168
e 27 171
e 27 172
e 27 175
e 27 179
e 27 184
e 27 188
e 27 197
e 28 29
e 28 30
e 28 31
e 28 32
e 28 33
e 28 36
e 28 40
e 28 41
e 28 46
e 28 47
e 28 52
e 28 61
e 28 68
e 28 75
e 28 77
e 28 78
e 28 79
e 28 81
e 28 84
e 28 104
e 28 106
e 28 108
e 28 109
e 28 113
e 28 115
e 28 120
e 28 121
e 28 129
e 28 133
e 28 136
e 28 140
e 28 143
e 28 153
e 28 163
e 28 167
e 28 169
e 28 173
e 28 181
e 28 185
e 28 190
e 28 196
e 29 31
e 29 32
e 29 36
e 29 38
e 29 39
e 29 40
e 29 42
e 29 43
e 29 46
e 29 49
e 29 53
e 29 54
e 29 57
e 29 58
e 29 59
e 29 60
e 29 61
e 29 63
e 29 72
e 29 75
e 29 76
e 29 77
e 29 80
e 29 81
e 29 83
e 29 86
e 29 87
e 29 88
e 29 92
e 29 93
e 29 94
e 29 96
e 29 98
e 29 104
e 29 105
e 29 107
e 29 108
e 29 111
e 29 114
e 29 115
e 29 118
e 29 119
e 29 121
e 29 126
e 29 130
e 29 139
e 29 144
e 29 152
e 29 154
e 29 155
e 29 157
e 29 162
e 29 168
e 29 175
e 29 177
e 29 179
e 29 183
e 29 192
e 29 196
e 30 35
e 30 38
e 30 40
e 30 48
e 30 53
e 30 56
e 30 69
e 30 70
e 30 71
e 30 73
e 30 82
e 30 84
e 30 86
e 30 91
e 30 96
e 30 98
e 30 105
e 30 111
e 30 113
e 30 114
e 30 131
e 30 134
e 30 136
e 30 138
e 30 160
e 30 166
e 30 176
e 30 186
e 30 192
e 31 32
e 31 33
e 31 34
e 31 36
e 31 45
e 31 58
e 31 61
e 31 62
e 31 63
e 31 64
e 31 77
e 31 79
e 31 80
e 31 81
e 31 84
e 31 86
e 31 90
e 31 93
e 31 94
e 31 99
e 31 112
e 31 122
e 31 134
e 31 138
e 31 147
e 31 161
e 31 182
e 31 183
e 31 187
e 32 36
e 32 38
e 32 39
e 32 40
e 32 42
e 32 43
e 32 44
e 32 45
e 32 48
e 32 51
e 32 55
e 32 56
e 32 57
e 32 59
e 32 62
e 32 63
e 32 65
e 32 73
e 32 77
e 32 80
e 32 81
e 32 82
e 32 83
e 32 85
e 32 87
e 32 90
e 32 92
e 32 93
e 32 95
e 32 111
e 32 116
e 32 130
e 32 139
e 32 143
e 32 148
e 32 149
e 32 158
e 32 166
e 32 171
e 32 173
e 32 182
e 32 184
e 32 188
e 32 189
e 32 193
e 33 34
e 33 39
e 33 45
e 33 49
e 33 50
e 33 52
e 33 53
e 33 54
e 33 55
e 33 65
e 33 69
e 33 80
e 33 100
e 33 105
e 33 106
e 33 107
e 33 115
e 33 118
e 33 120
e 33 121
e 33 122
e 33 123
e 33 126
e 33 127
e 33 131
e 33 139
e 33 152
e 33 159
e 33 167
e 33 187
e 34 55
e 34 57
e 34 60
e 34 65
e 34 71
e 34 75
e 34 80
e 34 101
e 34 102
e 34 114
e 34 125
e 34 129
e 34 134
e 34 136
e 34 140
e 34 141
e 34 146
e 34 149
e 34 154
e 34 164
e 34 167
e 34 168
e 34 180
e 34 188
e 34 192
e 35 39
e 35 40
e 35 43
e 35 48
e 35 53
e 35 55
e 35 62
e 35 63
e 35 68
e 35 70
e 35 72
e 35 73
e 35 75
e 35 86
e 35 97
e 35 109
e 35 114
e 35 117
e 35 126
e 35 141
e 35 142
e 35 150
e 35 154
e 35 160
e 35 164
e 35 165
e 35 166
e 35 170
e 35 171
e 35 177
e 35 187
e 35 188
e 35 197
e 36 40
e 36 44
e 36 47
e 36 48
e 36 51
e 36 53
e 36 54
e 36 56
e 36 61
e 36 64
e 36 67
e 36 72
e 36 73
e 36 75
e 36 79
e 36 83
e 36 88
e 36 93
e 36 99
e 36 103
e 36 115
e 36 128
e 36 129
e 36 130
e 36 139
e 36 140
e 36 147
e 36 159
e 36 166
e 36 179
e 36 188
e 36 194
e 36 196
e 37 38
e 37 41
e 37 42
e 37 45
e 37 46
e 37 47
e 37 52
e 37 57
e 37 58
e 37 62
e 37 64
e 37 70
e 37 79
e 37 83
e 37 86
e 37 104
e 37 106
e 37 118
e 37 121
e 37 122
e 37 127
e 37 131
e 37 141
e 37 145
e 37 151
e 37 154
e 37 158
e 37 161
e 37 164
e 37 167
e 37 174
e 37 178
e 37 179
e 38 42
e 38 44
e 38 45
e 38 46
e 38 51
e 38 54
e 38 58
e 38 60
e 38 64
e 38 67
e 38 70
e 38 71
e 38 76
e 38 80
e 38 87
e 38 93
e 38 97
e 38 103
e 38 108
e 38 113
e 38 120
e 38 133
e 38 161
e 38 165
e 38 167
e 38 168
e 38 183
e 38 188
e 38 194
e 39 40
e 39 41
e 39 42
e 39 43
e 39 50
e 39 51
e 39 74
e 39 80
e 39 90
e 39 96
e 39 97
e 39 101
e 39 105
e 39 109
e 39 119
e 39 125
e 39 133
e 39 138
e 39 141
e 39 146
e 39 163
e 39 167
e 39 179
e 39 193
e 40 46
e 40 53
e 40 62
e 40 66
e 40 75
e 40 78
e 40 79
e 40 85
e 40 90
e 40 92
e 40 95
e 40 102
e 40 103
e 40 122
e 40 123
e 40 124
e 40 128
e 40 131
e 40 135
e 40 136
e 40 144
e 40 146
e 40 154
e 40 166
e 40 172
e 40 175
e 40 194
e 41 44
e 41 52
e 41 53
e 41 54
e 41 56
e 41 57
e 41 58
e 41 59
e 41 63
e 41 70
e 41 74
e 41 76
e 41 78
e 41 82
e 41 94
e 41 96
e 41 98
e 41 100
e 41 106
e 41 108
e 41 111
e 41 117
e 41 118
e 41 119
e 41 123
e 41 128
e 41 131
e 41 139
e 41 142
e 41 152
e 41 154
e 41 167
e 41 173
e 41 176
e 41 181
e 42 43
e 42 46
e 42 47
e 42 49
e 42 52
e 42 53
e 42 59
e 42 62
e 42 65
e 42 67
e 42 92
e 42 111
e 42 134
e 42 137
e 42 144
e 42 146
e 42 148
e 42 155
e 42 157
e 42 162
e 42 171
e 42 179
e 42 181
e 42 184
e 42 197
e 43 45
e 43 46
e 43 47
e 43 59
e 43 60
e 43 62
e 43 73
e 43 101
e 43 128
e 43 129
e 43 139
e 43 140
e 43 147
e 43 160
e 43 168
e 43 169
e 44 47
e 44 48
e 44 49
e 44 51
e 44 52
e 44 53
e 44 57
e 44 59
e 44 61
e 44 63
e 44 64
e 44 65
e 44 66
e 44 69
e 44 71
e 44 76
e 44 77
e 44 83
e 44 89
e 44 92
e 44 100
e 44 103
e 44 104
e 44 105
e 44 106
e 44 108
e 44 112
e 44 113
e 44 119
e 44 123
e 44 125
e 44 126
e 44 132
e 44 137
e 44 147
e 44 150
e 44 157
e 44 165
e 44 172
e 44 175
e 44 183
e 44 192
e 45 50
e 45 51
e 45 66
e 45 85
e 45 87
e 45 91
e 45 99
e 45 107
e 45 109
e 45 112
e 45 122
e 45 125
e 45 148
e 45 155
e 45 171
e 45 173
e 45 174
e 45 175
e 45 178
e 45 186
e 45 189
e 46 64
e 46 69
e 46 70
e 46 71
e 46 92
e 46 94
e 46 101
e 46 103
e 46 109
e 46 110
e 46 136
e 46 179
e 46 188
e 46 194
e 47 51
e 47 77
e 47 80
e 47 84
e 47 86
e 47 91
e 47 96
e 47 97
e 47 103
e 47 105
e 47 107
e 47 110
e 47 116
e 47 117
e 47 121
e 47 159
e 47 175
e 47 191
e 48 50
e 48 53
e 48 56
e 48 60
e 48 61
e 48 65
e 48 67
e 48 68
e 48 81
e 48 83
e 48 85
e 48 89
e 48 99
e 48 102
e 48 116
e 48 124
e 48 125
e 48 130
e 48 132
e 48 133
e 48 141
e 48 146
e 48 158
e 48 167
e 48 175
e 48 189
e 48 191
e 48 193
e 49 54
e 49 55
e 49 61
e 49 63
e 49 65
e 49 75
e 49 77
e 49 82
e 49 85
e 49 96
e 49 104
e 49 108
e 49 111
e 49 116
e 49 117
e 49 118
e 49 132
e 49 137
e 49 144
e 49 145
e 49 148
e 49 163
e 49 165
e 49 169
e 49 178
e 49 183
e 49 185
e 49 188
e 49 191
e 50 55
e 50 58
e 50 60
e 50 67
e 50 68
e 50 71
e 50 73
e 50 78
e 50 82
e 50 83
e 50 89
e 50 96
e 50 97
e 50 118
e 50 126
e 50 146
e 50 150
e 50 169
e 50 173
e 51 54
e 51 76
e 51 78
e 51 87
e 51 97
e 51 108
e 51 109
e 51 131
e 51 132
e 51 157
e 51 162
e 51 177
e 51 178
e 52 55
e 52 63
e 52 66
e 52 68
e 52 69
e 52 76
e 52 79
e 52 94
e 52 105
e 52 106
e 52 111
e 52 130
e 52 135
e 52 136
e 52 137
e 52 162
e 52 163
e 52 177
e 52 188
e 53 58
e 53 59
e 53 62
e 53 64
e 53 66
e 53 72
e 53 74
e 53 90
e 53 100
e 53 120
e 53 138
e 53 150
e 53 151
e 53 154
e 53 158
e 53 173
e 53 192
e 54 57
e 54 59
e 54 63
e 54 64
e 54 74
e 54 76
e 54 85
e 54 87
e 54 92
e 54 102
e 54 106
e 54 110
e 54 116
e 54 120
e 54 126
e 54 127
e 54 133
e 54 134
e 54 135
e 54 136
e 54 137
e 54 154
e 54 158
e 54 159
e 54 175
e 54 189
e 55 63
e 55 85
e 55 87
e 55 92
e 55 105
e 55 108
e 55 116
e 55 135
e 55 139
e 55 141
e 55 149
e 55 164
e 55 165
e 55 183
e 56 62
e 56 66
e 56 67
e 56 71
e 56 72
e 56 75
e 56 76
e 56 79
e 56 88
e 56 90
e 56 93
e 56 98
e 56 99
e 56 100
e 56 102
e 56 111
e 56 115
e 56 118
e 56 131
e 56 157
e 56 163
e 56 167
e 56 168
e 56 183
e 56 187
e 57 62
e 57 63
e 57 72
e 57 74
e 57 78
e 57 84
e 57 86
e 57 96
e 57 98
e 57 101
e 57 117
e 57 121
e 57 147
e 57 156
e 57 168
e 57 175
e 57 179
e 57 181
e 57 192
e 58 65
e 58 67
e 58 68
e 58 69
e 58 70
e 58 72
e 58 73
e 58 78
e 58 81
e 58 82
e 58 91
e 58 101
e 58 102
e 58 104
e 58 106
e 58 120
e 58 122
e 58 147
e 58 154
e 58 158
e 58 163
e 58 168
e 58 182
e 58 192
e 59 61
e 59 75
e 59 88
e 59 93
e 59 95
e 59 103
e 59 121
e 59 129
e 59 133
e 59 135
e 59 141
e 59 162
e 59 166
e 59 181
e 59 182
e 59 191
e 60 72
e 60 94
e 60 108
e 60 109
e 60 110
e 60 114
e 60 127
e 60 128
e 60 132
e 60 133
e 60 139
e 60 178
e 60 184
e 60 195
e 61 62
e 61 67
e 61 68
e 61 76
e 61 77
e 61 91
e 61 95
e 61 101
e 61 109
e 61 116
e 61 122
e 61 128
e 61 140
e 61 141
e 61 147
e 61 151
e 61 160
e 61 165
e 61 188
e 62 64
e 62 66
e 62 67
e 62 69
e 62 85
e 62 86
e 62 91
e 62 93
e 62 103
e 62 115
e 62 131
e 62 135
e 62 146
e 62 148
e 62 181
e 62 191
e 62 196
e 63 86
e 63 96
e 63 113
e 63 155
e 63 156
e 63 169
e 63 182
e 63 183
e 63 195
e 64 70
e 64 73
e 64 74
e 64 77
e 64 78
e 64 80
e 64 82
e 64 84
e 64 92
e 64 100
e 64 105
e 64 106
e 64 110
e 64 117
e 64 121
e 64 138
e 64 149
e 64 161
e 64 172
e 64 174
e 64 183
e 64 184
e 65 73
e 65 83
e 65 89
e 65 91
e 65 95
e 65 96
e 65 98
e 65 100
e 65 126
e 65 128
e 65 129
e 65 134
e 65 140
e 65 143
e 65 153
e 65 154
e 65 157
e 65 174
e 66 71
e 66 73
e 66 91
e 66 101
e 66 103
e 66 109
e 66 123
e 66 126
e 66 145
e 66 148
e 66 152
e 66 169
e 66 170
e 66 196
e 67 68
e 67 69
e 67 72
e 67 84
e 67 103
e 67 123
e 67 124
e 67 135
e 67 144
e 67 150
e 67 156
e 67 164
e 67 170
e 68 70
e 68 84
e 68 87
e 68 110
e 68 115
e 68 117
e 68 120
e 68 126
e 68 136
e 68 137
e 68 140
e 68 142
e 68 143
e 68 159
e 68 166
e 68 190
e 68 196
e 69 70
e 69 87
e 69 89
e 69 105
e 69 111
e 69 124
e 69 125
e 69 142
e 69 163
e 69 166
e 69 175
e 70 74
e 70 123
e 70 124
e 70 134
e 70 142
e 70 156
e 70 160
e 70 165
e 70 176
e 70 191
e 70 195
e 70 197
e 71 75
e 71 89
e 71 91
e 71 98
e 71 100
e 71 111
e 71 124
e 71 130
e 71 138
e 71 148
e 71 151
e 71 170
e 71 179
e 71 180
e 71 194
e 71 196
e 72 87
e 72 93
e 72 95
e 72 109
e 72 125
e 72 134
e 72 140
e 72 146
e 72 157
e 72 172
e 73 84
e 73 85
e 73 86
e 73 87
e 73 88
e 73 89
e 73 91
e 73 99
e 73 112
e 73 132
e 73 158
e 73 160
e 73 163
e 73 171
e 73 172
e 73 174
e 73 178
e 73 181
e 73 184
e 73 185
e 73 189
e 74 75
e 74 81
e 74 84
e 74 88
e 74 94
e 74 106
e 74 109
e 74 128
e 74 131
e 74 190
e 74 195
e 74 197
e 75 76
e 75 82
e 75 83
e 75 87
e 75 89
e 75 107
e 75 142
e 75 151
e 75 152
e 75 167
e 75 170
e 75 190
e 75 194
e 76 77
e 76 81
e 76 90
e 76 101
e 76 105
e 76 107
e 76 119
e 76 121
e 76 130
e 76 135
e 76 150
e 76 162
e 76 170
e 76 181
e 76 187
e 77 85
e 77 89
e 77 94
e 77 103
e 77 104
e 77 107
e 77 108
e 77 111
e 77 113
e 77 124
e 77 133
e 77 137
e 77 190
e 78 83
e 78 85
e 78 92
e 78 95
e 78 98
e 78 112
e 78 136
e 78 144
e 78 145
e 78 171
e 78 182
e 78 183
e 78 197
e 79 80
e 79 93
e 79 124
e 79 128
e 79 129
e 79 135
e 79 136
e 79 141
e 79 143
e 79 153
e 79 163
e 79 172
e 79 176
e 79 178
e 79 189
e 80 90
e 80 94
e 80 95
e 80 114
e 80 123
e 80 139
e 80 151
e 80 153
e 80 154
e 80 158
e 80 167
e 80 176
e 80 180
e 80 186
e 81 90
e 81 99
e 81 104
e 81 109
e 81 112
e 81 120
e 81 125
e 81 129
e 81 136
e 81 158
e 81 161
e 81 196
e 82 99
e 82 102
e 82 112
e 82 142
e 82 164
e 82 168
e 82 174
e 83 97
e 83 138
e 83 141
e 83 148
e 83 166
e 83 169
e 83 193
e 84 105
e 84 106
e 84 114
e 84 123
e 84 130
e 84 186
e 85 102
e 85 106
e 85 119
e 85 127
e 85 132
e 85 137
e 85 146
e 85 153
e 85 160
e 85 173
e 85 174
e 85 177
e 85 185
e 85 196
e 86 92
e 86 98
e 86 114
e 86 115
e 86 133
e 86 138
e 86 139
e 86 141
e 86 142
e 86 151
e 86 156
e 86 158
e 86 159
e 86 170
e 86 173
e 86 177
e 87 96
e 87 98
e 87 101
e 87 121
e 87 143
e 87 147
e 87 149
e 87 153
e 88 90
e 88 99
e 88 122
e 88 123
e 88 132
e 88 134
e 88 154
e 88 155
e 88 159
e 88 168
e 88 190
e 89 107
e 89 135
e 89 144
e 89 148
e 89 162
e 89 187
e 89 195
e 90 106
e 90 110
e 90 132
e 90 133
e 90 141
e 90 143
e 90 152
e 90 167
e 90 174
e 90 175
e 91 102
e 91 112
e 91 118
e 91 120
e 91 153
e 91 180
e 92 95
e 92 134
e 92 137
e 92 138
e 92 147
e 92 152
e 92 157
e 92 161
e 92 163
e 92 184
e 93 100
e 93 114
e 93 117
e 93 145
e 93 149
e 93 169
e 93 183
e 93 192
e 94 95
e 94 103
e 94 116
e 94 121
e 94 127
e 94 143
e 94 147
e 94 150
e 94 155
e 94 171
e 94 185
e 94 193
e 95 96
e 95 97
e 95 98
e 95 104
e 95 105
e 95 106
e 95 114
e 95 124
e 95 127
e 95 134
e 95 149
e 95 162
e 95 171
e 95 189
e 96 102
e 96 104
e 96 110
e 96 111
e 96 117
e 96 153
e 96 154
e 96 158
e 96 183
e 96 184
e 97 113
e 97 119
e 97 122
e 97 129
e 97 164
e 97 175
e 97 185
e 98 112
e 98 113
e 98 117
e 98 130
e 98 146
e 98 161
e 99 110
e 99 120
e 99 143
e 99 172
e 99 189
e 99 193
e 99 195
e 99 196
e 100 101
e 100 127
e 100 129
e 100 138
e 100 155
e 100 158
e 100 176
e 101 103
e 101 113
e 101 116
e 101 126
e 101 136
e 101 155
e 101 156
e 101 174
e 101 181
e 101 190
e 102 114
e 102 119
e 102 132
e 102 146
e 102 189
e 102 190
e 103 116
e 103 133
e 103 138
e 103 152
e 103 161
e 103 169
e 104 116
e 104 136
e 104 137
e 104 151
e 104 163
e 104 181
e 104 188
e 105 123
e 105 125
e 105 132
e 105 135
e 105 144
e 105 176
e 105 181
e 105 191
e 105 197
e 106 110
e 106 122
e 106 133
e 106 140
e 106 172
e 106 180
e 106 182
e 106 184
e 106 186
e 106 189
e 107 110
e 107 142
e 107 158
e 108 109
e 108 128
e 108 129
e 108 164
e 108 165
e 108 182
e 108 192
e 108 194
e 109 118
e 109 127
e 109 131
e 109 138
e 109 193
e 110 111
e 110 114
e 110 123
e 110 134
e 111 126
e 111 134
e 111 150
e 111 152
e 111 182
e 112 113
e 112 117
e 112 122
e 112 157
e 112 159
e 112 166
e 113 127
e 113 135
e 113 139
e 113 160
e 113 165
e 113 173
e 113 186
e 113 187
e 113 191
e 114 115
e 114 152
e 115 126
e 115 130
e 115 133
e 115 136
e 115 142
e 115 159
e 115 160
e 115 174
e 115 179
e 116 142
e 117 124
e 117 144
e 117 145
e 117 150
e 117 163
e 117 170
e 117 189
e 117 192
e 117 196
e 118 128
e 118 131
e 118 160
e 118 163
e 118 165
e 119 127
e 119 155
e 119 187
e 120 121
e 120 131
e 120 147
e 120 177
e 120 180
e 120 182
e 120 185
e 120 188
e 120 191
e 121 122
e 121 148
e 121 156
e 121 167
e 121 174
e 122 175
e 122 178
e 122 184
e 122 197
e 123 145
e 123 148
e 123 160
e 124 141
e 124 164
e 124 188
e 124 195
e 124 197
e 125 126
e 125 132
e 125 136
e 125 169
e 125 173
e 125 178
e 126 135
e 126 147
e 126 150
e 126 180
e 126 190
e 126 192
e 127 147
e 127 155
e 127 160
e 127 170
e 127 182
e 127 184
e 128 133
e 128 144
e 128 152
e 128 157
e 128 176
e 128 195
e 129 135
e 129 168
e 129 171
e 129 180
e 130 149
e 130 168
e 131 140
e 131 156
e 131 197
e 132 137
e 132 143
e 132 150
e 132 171
e 132 173
e 132 183
e 132 194
e 133 139
e 133 145
e 133 146
e 133 168
e 134 143
e 134 150
e 134 166
e 134 183
e 134 190
e 134 195
e 135 140
e 135 142
e 135 148
e 135 155
e 135 156
e 135 160
e 135 163
e 135 172
e 135 177
e 135 185
e 135 189
e 136 142
e 136 160
e 136 188
e 137 142
e 137 143
e 137 151
e 137 182
e 137 190
e 138 157
e 138 184
e 139 174
e 139 190
e 139 194
e 140 141
e 140 149
e 140 155
e 140 156
e 140 180
e 141 145
e 141 151
e 141 166
e 141 180
e 141 196
e 142 177
e 142 185
e 143 144
e 143 145
e 143 152
e 143 153
e 143 165
e 144 145
e 144 153
e 144 163
e 144 177
e 145 149
e 145 156
e 145 162
e 145 174
e 145 185
e 145 186
e 145 195
e 146 147
e 146 169
e 147 171
e 149 157
e 149 179
e 149 180
e 149 182
e 149 185
e 150 155
e 150 158
e 150 161
e 150 170
e 150 182
e 151 167
e 151 176
e 152 184
e 153 173
e 153 181
e 154 165
e 154 169
e 154 196
e 155 156
e 156 176
e 156 179
e 156 189
e 157 166
e 157 172
e 157 180
e 158 190
e 158 191
e 158 195
e 159 185
e 159 186
e 160 176
e 161 167
e 161 178
e 161 185
e 161 196
e 162 168
e 164 174
e 164 175
e 165 184
e 166 168
e 166 187
e 167 186
e 167 193
e 168 192
e 169 179
e 170 177
e 171 182
e 172 183
e 172 195
e 177 192
e 178 180
e 179 186
e 179 187
e 180 181
e 181 194
e 183 193
e 184 193
e 185 195
e 185 196
e 186 195
e 189 197
e 190 194
e 191 197
e 193 197
e 196 197
